projet_m2_wvcp/projet_m2_wvcp/original_wvcp_dzn/p10.clq.dzn
cliques=[{6,0,8,14},{0,1},{3,2,5,4},{3,2,5,4},{3,2,5,4},{3,2,5,4},{6,0,8,14},{6,7},{6,0,8,14},{8,9},{2,10},{3,11},{11,10,13,12},{5,13},{6,0,8,14},{14,15}];
nr_cliques=16;
