projet_m2_wvcp/projet_m2_wvcp/original_wvcp_dzn/p10.dzn
name="p10";
nr_vertices=16;
nr_edges=32;
neighborhoods=[{1,6,8,14},{0,7,9,15},{3,4,5,10},{2,4,5,11},{2,3,5,12},{2,3,4,13},{0,7,8,14},{1,6,9,15},{0,6,9,14},{1,7,8,15},{2,11,12,13},{3,10,12,13},{4,10,11,13},{5,10,11,12},{0,6,8,15},{1,7,9,14}];
weights=[909,107,909,1780,78,510,1780,389,784,66,107,389,6,39,510,39];
